c File: flat200_3_0.col
c
c SOURCE: Joseph Culberson (joe@cs.ualberta.ca)
c DESCRIPTION: Quasi-random coloring problem
c              generated with flatness = 0
c                             probability = 0.036
c                             known coloring = 3
c                             random seed = 1070
c              Creation Date:  Wed Feb 24 10:40:08 1999
c Maximum degree = 8 Minimum degree = 1
c COLOR VERIFICATION: Using the permuted order
c under simple greedy yields the specified
c coloring number
c Color = 3 specified partitions = 3
c p edge 200 479
c cnf created by edge2cnf
p cnf 600 2237
-1 -2 0
-1 -3 0
-2 -3 0
1 2 3 0
-4 -5 0
-4 -6 0
-5 -6 0
4 5 6 0
-7 -8 0
-7 -9 0
-8 -9 0
7 8 9 0
-10 -11 0
-10 -12 0
-11 -12 0
10 11 12 0
-13 -14 0
-13 -15 0
-14 -15 0
13 14 15 0
-16 -17 0
-16 -18 0
-17 -18 0
16 17 18 0
-19 -20 0
-19 -21 0
-20 -21 0
19 20 21 0
-22 -23 0
-22 -24 0
-23 -24 0
22 23 24 0
-25 -26 0
-25 -27 0
-26 -27 0
25 26 27 0
-28 -29 0
-28 -30 0
-29 -30 0
28 29 30 0
-31 -32 0
-31 -33 0
-32 -33 0
31 32 33 0
-34 -35 0
-34 -36 0
-35 -36 0
34 35 36 0
-37 -38 0
-37 -39 0
-38 -39 0
37 38 39 0
-40 -41 0
-40 -42 0
-41 -42 0
40 41 42 0
-43 -44 0
-43 -45 0
-44 -45 0
43 44 45 0
-46 -47 0
-46 -48 0
-47 -48 0
46 47 48 0
-49 -50 0
-49 -51 0
-50 -51 0
49 50 51 0
-52 -53 0
-52 -54 0
-53 -54 0
52 53 54 0
-55 -56 0
-55 -57 0
-56 -57 0
55 56 57 0
-58 -59 0
-58 -60 0
-59 -60 0
58 59 60 0
-61 -62 0
-61 -63 0
-62 -63 0
61 62 63 0
-64 -65 0
-64 -66 0
-65 -66 0
64 65 66 0
-67 -68 0
-67 -69 0
-68 -69 0
67 68 69 0
-70 -71 0
-70 -72 0
-71 -72 0
70 71 72 0
-73 -74 0
-73 -75 0
-74 -75 0
73 74 75 0
-76 -77 0
-76 -78 0
-77 -78 0
76 77 78 0
-79 -80 0
-79 -81 0
-80 -81 0
79 80 81 0
-82 -83 0
-82 -84 0
-83 -84 0
82 83 84 0
-85 -86 0
-85 -87 0
-86 -87 0
85 86 87 0
-88 -89 0
-88 -90 0
-89 -90 0
88 89 90 0
-91 -92 0
-91 -93 0
-92 -93 0
91 92 93 0
-94 -95 0
-94 -96 0
-95 -96 0
94 95 96 0
-97 -98 0
-97 -99 0
-98 -99 0
97 98 99 0
-100 -101 0
-100 -102 0
-101 -102 0
100 101 102 0
-103 -104 0
-103 -105 0
-104 -105 0
103 104 105 0
-106 -107 0
-106 -108 0
-107 -108 0
106 107 108 0
-109 -110 0
-109 -111 0
-110 -111 0
109 110 111 0
-112 -113 0
-112 -114 0
-113 -114 0
112 113 114 0
-115 -116 0
-115 -117 0
-116 -117 0
115 116 117 0
-118 -119 0
-118 -120 0
-119 -120 0
118 119 120 0
-121 -122 0
-121 -123 0
-122 -123 0
121 122 123 0
-124 -125 0
-124 -126 0
-125 -126 0
124 125 126 0
-127 -128 0
-127 -129 0
-128 -129 0
127 128 129 0
-130 -131 0
-130 -132 0
-131 -132 0
130 131 132 0
-133 -134 0
-133 -135 0
-134 -135 0
133 134 135 0
-136 -137 0
-136 -138 0
-137 -138 0
136 137 138 0
-139 -140 0
-139 -141 0
-140 -141 0
139 140 141 0
-142 -143 0
-142 -144 0
-143 -144 0
142 143 144 0
-145 -146 0
-145 -147 0
-146 -147 0
145 146 147 0
-148 -149 0
-148 -150 0
-149 -150 0
148 149 150 0
-151 -152 0
-151 -153 0
-152 -153 0
151 152 153 0
-154 -155 0
-154 -156 0
-155 -156 0
154 155 156 0
-157 -158 0
-157 -159 0
-158 -159 0
157 158 159 0
-160 -161 0
-160 -162 0
-161 -162 0
160 161 162 0
-163 -164 0
-163 -165 0
-164 -165 0
163 164 165 0
-166 -167 0
-166 -168 0
-167 -168 0
166 167 168 0
-169 -170 0
-169 -171 0
-170 -171 0
169 170 171 0
-172 -173 0
-172 -174 0
-173 -174 0
172 173 174 0
-175 -176 0
-175 -177 0
-176 -177 0
175 176 177 0
-178 -179 0
-178 -180 0
-179 -180 0
178 179 180 0
-181 -182 0
-181 -183 0
-182 -183 0
181 182 183 0
-184 -185 0
-184 -186 0
-185 -186 0
184 185 186 0
-187 -188 0
-187 -189 0
-188 -189 0
187 188 189 0
-190 -191 0
-190 -192 0
-191 -192 0
190 191 192 0
-193 -194 0
-193 -195 0
-194 -195 0
193 194 195 0
-196 -197 0
-196 -198 0
-197 -198 0
196 197 198 0
-199 -200 0
-199 -201 0
-200 -201 0
199 200 201 0
-202 -203 0
-202 -204 0
-203 -204 0
202 203 204 0
-205 -206 0
-205 -207 0
-206 -207 0
205 206 207 0
-208 -209 0
-208 -210 0
-209 -210 0
208 209 210 0
-211 -212 0
-211 -213 0
-212 -213 0
211 212 213 0
-214 -215 0
-214 -216 0
-215 -216 0
214 215 216 0
-217 -218 0
-217 -219 0
-218 -219 0
217 218 219 0
-220 -221 0
-220 -222 0
-221 -222 0
220 221 222 0
-223 -224 0
-223 -225 0
-224 -225 0
223 224 225 0
-226 -227 0
-226 -228 0
-227 -228 0
226 227 228 0
-229 -230 0
-229 -231 0
-230 -231 0
229 230 231 0
-232 -233 0
-232 -234 0
-233 -234 0
232 233 234 0
-235 -236 0
-235 -237 0
-236 -237 0
235 236 237 0
-238 -239 0
-238 -240 0
-239 -240 0
238 239 240 0
-241 -242 0
-241 -243 0
-242 -243 0
241 242 243 0
-244 -245 0
-244 -246 0
-245 -246 0
244 245 246 0
-247 -248 0
-247 -249 0
-248 -249 0
247 248 249 0
-250 -251 0
-250 -252 0
-251 -252 0
250 251 252 0
-253 -254 0
-253 -255 0
-254 -255 0
253 254 255 0
-256 -257 0
-256 -258 0
-257 -258 0
256 257 258 0
-259 -260 0
-259 -261 0
-260 -261 0
259 260 261 0
-262 -263 0
-262 -264 0
-263 -264 0
262 263 264 0
-265 -266 0
-265 -267 0
-266 -267 0
265 266 267 0
-268 -269 0
-268 -270 0
-269 -270 0
268 269 270 0
-271 -272 0
-271 -273 0
-272 -273 0
271 272 273 0
-274 -275 0
-274 -276 0
-275 -276 0
274 275 276 0
-277 -278 0
-277 -279 0
-278 -279 0
277 278 279 0
-280 -281 0
-280 -282 0
-281 -282 0
280 281 282 0
-283 -284 0
-283 -285 0
-284 -285 0
283 284 285 0
-286 -287 0
-286 -288 0
-287 -288 0
286 287 288 0
-289 -290 0
-289 -291 0
-290 -291 0
289 290 291 0
-292 -293 0
-292 -294 0
-293 -294 0
292 293 294 0
-295 -296 0
-295 -297 0
-296 -297 0
295 296 297 0
-298 -299 0
-298 -300 0
-299 -300 0
298 299 300 0
-301 -302 0
-301 -303 0
-302 -303 0
301 302 303 0
-304 -305 0
-304 -306 0
-305 -306 0
304 305 306 0
-307 -308 0
-307 -309 0
-308 -309 0
307 308 309 0
-310 -311 0
-310 -312 0
-311 -312 0
310 311 312 0
-313 -314 0
-313 -315 0
-314 -315 0
313 314 315 0
-316 -317 0
-316 -318 0
-317 -318 0
316 317 318 0
-319 -320 0
-319 -321 0
-320 -321 0
319 320 321 0
-322 -323 0
-322 -324 0
-323 -324 0
322 323 324 0
-325 -326 0
-325 -327 0
-326 -327 0
325 326 327 0
-328 -329 0
-328 -330 0
-329 -330 0
328 329 330 0
-331 -332 0
-331 -333 0
-332 -333 0
331 332 333 0
-334 -335 0
-334 -336 0
-335 -336 0
334 335 336 0
-337 -338 0
-337 -339 0
-338 -339 0
337 338 339 0
-340 -341 0
-340 -342 0
-341 -342 0
340 341 342 0
-343 -344 0
-343 -345 0
-344 -345 0
343 344 345 0
-346 -347 0
-346 -348 0
-347 -348 0
346 347 348 0
-349 -350 0
-349 -351 0
-350 -351 0
349 350 351 0
-352 -353 0
-352 -354 0
-353 -354 0
352 353 354 0
-355 -356 0
-355 -357 0
-356 -357 0
355 356 357 0
-358 -359 0
-358 -360 0
-359 -360 0
358 359 360 0
-361 -362 0
-361 -363 0
-362 -363 0
361 362 363 0
-364 -365 0
-364 -366 0
-365 -366 0
364 365 366 0
-367 -368 0
-367 -369 0
-368 -369 0
367 368 369 0
-370 -371 0
-370 -372 0
-371 -372 0
370 371 372 0
-373 -374 0
-373 -375 0
-374 -375 0
373 374 375 0
-376 -377 0
-376 -378 0
-377 -378 0
376 377 378 0
-379 -380 0
-379 -381 0
-380 -381 0
379 380 381 0
-382 -383 0
-382 -384 0
-383 -384 0
382 383 384 0
-385 -386 0
-385 -387 0
-386 -387 0
385 386 387 0
-388 -389 0
-388 -390 0
-389 -390 0
388 389 390 0
-391 -392 0
-391 -393 0
-392 -393 0
391 392 393 0
-394 -395 0
-394 -396 0
-395 -396 0
394 395 396 0
-397 -398 0
-397 -399 0
-398 -399 0
397 398 399 0
-400 -401 0
-400 -402 0
-401 -402 0
400 401 402 0
-403 -404 0
-403 -405 0
-404 -405 0
403 404 405 0
-406 -407 0
-406 -408 0
-407 -408 0
406 407 408 0
-409 -410 0
-409 -411 0
-410 -411 0
409 410 411 0
-412 -413 0
-412 -414 0
-413 -414 0
412 413 414 0
-415 -416 0
-415 -417 0
-416 -417 0
415 416 417 0
-418 -419 0
-418 -420 0
-419 -420 0
418 419 420 0
-421 -422 0
-421 -423 0
-422 -423 0
421 422 423 0
-424 -425 0
-424 -426 0
-425 -426 0
424 425 426 0
-427 -428 0
-427 -429 0
-428 -429 0
427 428 429 0
-430 -431 0
-430 -432 0
-431 -432 0
430 431 432 0
-433 -434 0
-433 -435 0
-434 -435 0
433 434 435 0
-436 -437 0
-436 -438 0
-437 -438 0
436 437 438 0
-439 -440 0
-439 -441 0
-440 -441 0
439 440 441 0
-442 -443 0
-442 -444 0
-443 -444 0
442 443 444 0
-445 -446 0
-445 -447 0
-446 -447 0
445 446 447 0
-448 -449 0
-448 -450 0
-449 -450 0
448 449 450 0
-451 -452 0
-451 -453 0
-452 -453 0
451 452 453 0
-454 -455 0
-454 -456 0
-455 -456 0
454 455 456 0
-457 -458 0
-457 -459 0
-458 -459 0
457 458 459 0
-460 -461 0
-460 -462 0
-461 -462 0
460 461 462 0
-463 -464 0
-463 -465 0
-464 -465 0
463 464 465 0
-466 -467 0
-466 -468 0
-467 -468 0
466 467 468 0
-469 -470 0
-469 -471 0
-470 -471 0
469 470 471 0
-472 -473 0
-472 -474 0
-473 -474 0
472 473 474 0
-475 -476 0
-475 -477 0
-476 -477 0
475 476 477 0
-478 -479 0
-478 -480 0
-479 -480 0
478 479 480 0
-481 -482 0
-481 -483 0
-482 -483 0
481 482 483 0
-484 -485 0
-484 -486 0
-485 -486 0
484 485 486 0
-487 -488 0
-487 -489 0
-488 -489 0
487 488 489 0
-490 -491 0
-490 -492 0
-491 -492 0
490 491 492 0
-493 -494 0
-493 -495 0
-494 -495 0
493 494 495 0
-496 -497 0
-496 -498 0
-497 -498 0
496 497 498 0
-499 -500 0
-499 -501 0
-500 -501 0
499 500 501 0
-502 -503 0
-502 -504 0
-503 -504 0
502 503 504 0
-505 -506 0
-505 -507 0
-506 -507 0
505 506 507 0
-508 -509 0
-508 -510 0
-509 -510 0
508 509 510 0
-511 -512 0
-511 -513 0
-512 -513 0
511 512 513 0
-514 -515 0
-514 -516 0
-515 -516 0
514 515 516 0
-517 -518 0
-517 -519 0
-518 -519 0
517 518 519 0
-520 -521 0
-520 -522 0
-521 -522 0
520 521 522 0
-523 -524 0
-523 -525 0
-524 -525 0
523 524 525 0
-526 -527 0
-526 -528 0
-527 -528 0
526 527 528 0
-529 -530 0
-529 -531 0
-530 -531 0
529 530 531 0
-532 -533 0
-532 -534 0
-533 -534 0
532 533 534 0
-535 -536 0
-535 -537 0
-536 -537 0
535 536 537 0
-538 -539 0
-538 -540 0
-539 -540 0
538 539 540 0
-541 -542 0
-541 -543 0
-542 -543 0
541 542 543 0
-544 -545 0
-544 -546 0
-545 -546 0
544 545 546 0
-547 -548 0
-547 -549 0
-548 -549 0
547 548 549 0
-550 -551 0
-550 -552 0
-551 -552 0
550 551 552 0
-553 -554 0
-553 -555 0
-554 -555 0
553 554 555 0
-556 -557 0
-556 -558 0
-557 -558 0
556 557 558 0
-559 -560 0
-559 -561 0
-560 -561 0
559 560 561 0
-562 -563 0
-562 -564 0
-563 -564 0
562 563 564 0
-565 -566 0
-565 -567 0
-566 -567 0
565 566 567 0
-568 -569 0
-568 -570 0
-569 -570 0
568 569 570 0
-571 -572 0
-571 -573 0
-572 -573 0
571 572 573 0
-574 -575 0
-574 -576 0
-575 -576 0
574 575 576 0
-577 -578 0
-577 -579 0
-578 -579 0
577 578 579 0
-580 -581 0
-580 -582 0
-581 -582 0
580 581 582 0
-583 -584 0
-583 -585 0
-584 -585 0
583 584 585 0
-586 -587 0
-586 -588 0
-587 -588 0
586 587 588 0
-589 -590 0
-589 -591 0
-590 -591 0
589 590 591 0
-592 -593 0
-592 -594 0
-593 -594 0
592 593 594 0
-595 -596 0
-595 -597 0
-596 -597 0
595 596 597 0
-598 -599 0
-598 -600 0
-599 -600 0
598 599 600 0
-121 -1 0
-122 -2 0
-123 -3 0
-340 -1 0
-341 -2 0
-342 -3 0
-352 -1 0
-353 -2 0
-354 -3 0
-415 -1 0
-416 -2 0
-417 -3 0
-439 -1 0
-440 -2 0
-441 -3 0
-502 -1 0
-503 -2 0
-504 -3 0
-121 -4 0
-122 -5 0
-123 -6 0
-184 -4 0
-185 -5 0
-186 -6 0
-268 -4 0
-269 -5 0
-270 -6 0
-304 -4 0
-305 -5 0
-306 -6 0
-382 -4 0
-383 -5 0
-384 -6 0
-412 -4 0
-413 -5 0
-414 -6 0
-448 -4 0
-449 -5 0
-450 -6 0
-61 -7 0
-62 -8 0
-63 -9 0
-103 -7 0
-104 -8 0
-105 -9 0
-217 -7 0
-218 -8 0
-219 -9 0
-229 -7 0
-230 -8 0
-231 -9 0
-247 -7 0
-248 -8 0
-249 -9 0
-298 -7 0
-299 -8 0
-300 -9 0
-325 -7 0
-326 -8 0
-327 -9 0
-574 -7 0
-575 -8 0
-576 -9 0
-49 -10 0
-50 -11 0
-51 -12 0
-271 -10 0
-272 -11 0
-273 -12 0
-373 -10 0
-374 -11 0
-375 -12 0
-448 -10 0
-449 -11 0
-450 -12 0
-481 -10 0
-482 -11 0
-483 -12 0
-556 -10 0
-557 -11 0
-558 -12 0
-25 -13 0
-26 -14 0
-27 -15 0
-109 -13 0
-110 -14 0
-111 -15 0
-289 -13 0
-290 -14 0
-291 -15 0
-397 -13 0
-398 -14 0
-399 -15 0
-40 -16 0
-41 -17 0
-42 -18 0
-214 -16 0
-215 -17 0
-216 -18 0
-310 -16 0
-311 -17 0
-312 -18 0
-331 -16 0
-332 -17 0
-333 -18 0
-55 -19 0
-56 -20 0
-57 -21 0
-271 -19 0
-272 -20 0
-273 -21 0
-274 -19 0
-275 -20 0
-276 -21 0
-472 -19 0
-473 -20 0
-474 -21 0
-484 -19 0
-485 -20 0
-486 -21 0
-112 -22 0
-113 -23 0
-114 -24 0
-187 -22 0
-188 -23 0
-189 -24 0
-253 -22 0
-254 -23 0
-255 -24 0
-283 -22 0
-284 -23 0
-285 -24 0
-487 -22 0
-488 -23 0
-489 -24 0
-532 -22 0
-533 -23 0
-534 -24 0
-187 -25 0
-188 -26 0
-189 -27 0
-223 -25 0
-224 -26 0
-225 -27 0
-352 -25 0
-353 -26 0
-354 -27 0
-463 -25 0
-464 -26 0
-465 -27 0
-496 -25 0
-497 -26 0
-498 -27 0
-499 -25 0
-500 -26 0
-501 -27 0
-574 -25 0
-575 -26 0
-576 -27 0
-277 -28 0
-278 -29 0
-279 -30 0
-526 -28 0
-527 -29 0
-528 -30 0
-64 -31 0
-65 -32 0
-66 -33 0
-187 -31 0
-188 -32 0
-189 -33 0
-313 -31 0
-314 -32 0
-315 -33 0
-457 -31 0
-458 -32 0
-459 -33 0
-517 -31 0
-518 -32 0
-519 -33 0
-526 -31 0
-527 -32 0
-528 -33 0
-91 -34 0
-92 -35 0
-93 -36 0
-157 -34 0
-158 -35 0
-159 -36 0
-325 -34 0
-326 -35 0
-327 -36 0
-361 -34 0
-362 -35 0
-363 -36 0
-433 -34 0
-434 -35 0
-435 -36 0
-58 -37 0
-59 -38 0
-60 -39 0
-211 -37 0
-212 -38 0
-213 -39 0
-427 -37 0
-428 -38 0
-429 -39 0
-595 -37 0
-596 -38 0
-597 -39 0
-193 -40 0
-194 -41 0
-195 -42 0
-226 -40 0
-227 -41 0
-228 -42 0
-88 -43 0
-89 -44 0
-90 -45 0
-124 -43 0
-125 -44 0
-126 -45 0
-226 -43 0
-227 -44 0
-228 -45 0
-244 -43 0
-245 -44 0
-246 -45 0
-253 -43 0
-254 -44 0
-255 -45 0
-331 -43 0
-332 -44 0
-333 -45 0
-118 -46 0
-119 -47 0
-120 -48 0
-289 -46 0
-290 -47 0
-291 -48 0
-487 -46 0
-488 -47 0
-489 -48 0
-382 -49 0
-383 -50 0
-384 -51 0
-490 -49 0
-491 -50 0
-492 -51 0
-94 -52 0
-95 -53 0
-96 -54 0
-145 -52 0
-146 -53 0
-147 -54 0
-268 -52 0
-269 -53 0
-270 -54 0
-310 -52 0
-311 -53 0
-312 -54 0
-325 -52 0
-326 -53 0
-327 -54 0
-358 -52 0
-359 -53 0
-360 -54 0
-394 -52 0
-395 -53 0
-396 -54 0
-529 -52 0
-530 -53 0
-531 -54 0
-163 -55 0
-164 -56 0
-165 -57 0
-169 -55 0
-170 -56 0
-171 -57 0
-274 -55 0
-275 -56 0
-276 -57 0
-400 -55 0
-401 -56 0
-402 -57 0
-130 -58 0
-131 -59 0
-132 -60 0
-316 -58 0
-317 -59 0
-318 -60 0
-514 -58 0
-515 -59 0
-516 -60 0
-574 -58 0
-575 -59 0
-576 -60 0
-229 -61 0
-230 -62 0
-231 -63 0
-274 -61 0
-275 -62 0
-276 -63 0
-442 -61 0
-443 -62 0
-444 -63 0
-508 -61 0
-509 -62 0
-510 -63 0
-571 -61 0
-572 -62 0
-573 -63 0
-175 -64 0
-176 -65 0
-177 -66 0
-199 -64 0
-200 -65 0
-201 -66 0
-484 -64 0
-485 -65 0
-486 -66 0
-574 -64 0
-575 -65 0
-576 -66 0
-535 -67 0
-536 -68 0
-537 -69 0
-109 -70 0
-110 -71 0
-111 -72 0
-178 -70 0
-179 -71 0
-180 -72 0
-286 -70 0
-287 -71 0
-288 -72 0
-382 -70 0
-383 -71 0
-384 -72 0
-388 -70 0
-389 -71 0
-390 -72 0
-418 -70 0
-419 -71 0
-420 -72 0
-484 -70 0
-485 -71 0
-486 -72 0
-79 -73 0
-80 -74 0
-81 -75 0
-136 -73 0
-137 -74 0
-138 -75 0
-403 -73 0
-404 -74 0
-405 -75 0
-463 -73 0
-464 -74 0
-465 -75 0
-481 -73 0
-482 -74 0
-483 -75 0
-541 -73 0
-542 -74 0
-543 -75 0
-571 -73 0
-572 -74 0
-573 -75 0
-589 -73 0
-590 -74 0
-591 -75 0
-580 -76 0
-581 -77 0
-582 -78 0
-136 -79 0
-137 -80 0
-138 -81 0
-280 -79 0
-281 -80 0
-282 -81 0
-349 -79 0
-350 -80 0
-351 -81 0
-133 -82 0
-134 -83 0
-135 -84 0
-202 -82 0
-203 -83 0
-204 -84 0
-379 -82 0
-380 -83 0
-381 -84 0
-502 -82 0
-503 -83 0
-504 -84 0
-511 -82 0
-512 -83 0
-513 -84 0
-520 -82 0
-521 -83 0
-522 -84 0
-148 -85 0
-149 -86 0
-150 -87 0
-166 -85 0
-167 -86 0
-168 -87 0
-337 -85 0
-338 -86 0
-339 -87 0
-367 -85 0
-368 -86 0
-369 -87 0
-376 -85 0
-377 -86 0
-378 -87 0
-307 -88 0
-308 -89 0
-309 -90 0
-481 -88 0
-482 -89 0
-483 -90 0
-571 -88 0
-572 -89 0
-573 -90 0
-232 -91 0
-233 -92 0
-234 -93 0
-286 -91 0
-287 -92 0
-288 -93 0
-454 -91 0
-455 -92 0
-456 -93 0
-553 -91 0
-554 -92 0
-555 -93 0
-106 -94 0
-107 -95 0
-108 -96 0
-385 -94 0
-386 -95 0
-387 -96 0
-370 -97 0
-371 -98 0
-372 -99 0
-127 -100 0
-128 -101 0
-129 -102 0
-130 -100 0
-131 -101 0
-132 -102 0
-298 -100 0
-299 -101 0
-300 -102 0
-475 -100 0
-476 -101 0
-477 -102 0
-169 -103 0
-170 -104 0
-171 -105 0
-190 -103 0
-191 -104 0
-192 -105 0
-274 -103 0
-275 -104 0
-276 -105 0
-361 -103 0
-362 -104 0
-363 -105 0
-145 -106 0
-146 -107 0
-147 -108 0
-151 -106 0
-152 -107 0
-153 -108 0
-223 -106 0
-224 -107 0
-225 -108 0
-265 -109 0
-266 -110 0
-267 -111 0
-499 -109 0
-500 -110 0
-501 -111 0
-166 -112 0
-167 -113 0
-168 -114 0
-211 -112 0
-212 -113 0
-213 -114 0
-304 -112 0
-305 -113 0
-306 -114 0
-340 -112 0
-341 -113 0
-342 -114 0
-175 -115 0
-176 -116 0
-177 -117 0
-322 -115 0
-323 -116 0
-324 -117 0
-394 -115 0
-395 -116 0
-396 -117 0
-481 -115 0
-482 -116 0
-483 -117 0
-544 -115 0
-545 -116 0
-546 -117 0
-151 -118 0
-152 -119 0
-153 -120 0
-421 -118 0
-422 -119 0
-423 -120 0
-436 -118 0
-437 -119 0
-438 -120 0
-157 -121 0
-158 -122 0
-159 -123 0
-208 -121 0
-209 -122 0
-210 -123 0
-349 -121 0
-350 -122 0
-351 -123 0
-355 -121 0
-356 -122 0
-357 -123 0
-307 -124 0
-308 -125 0
-309 -126 0
-481 -124 0
-482 -125 0
-483 -126 0
-499 -124 0
-500 -125 0
-501 -126 0
-154 -127 0
-155 -128 0
-156 -129 0
-196 -127 0
-197 -128 0
-198 -129 0
-313 -127 0
-314 -128 0
-315 -129 0
-403 -127 0
-404 -128 0
-405 -129 0
-520 -127 0
-521 -128 0
-522 -129 0
-193 -130 0
-194 -131 0
-195 -132 0
-466 -130 0
-467 -131 0
-468 -132 0
-241 -133 0
-242 -134 0
-243 -135 0
-463 -133 0
-464 -134 0
-465 -135 0
-538 -133 0
-539 -134 0
-540 -135 0
-562 -133 0
-563 -134 0
-564 -135 0
-349 -136 0
-350 -137 0
-351 -138 0
-358 -136 0
-359 -137 0
-360 -138 0
-433 -136 0
-434 -137 0
-435 -138 0
-559 -136 0
-560 -137 0
-561 -138 0
-157 -139 0
-158 -140 0
-159 -141 0
-214 -139 0
-215 -140 0
-216 -141 0
-484 -139 0
-485 -140 0
-486 -141 0
-526 -139 0
-527 -140 0
-528 -141 0
-202 -142 0
-203 -143 0
-204 -144 0
-232 -142 0
-233 -143 0
-234 -144 0
-349 -142 0
-350 -143 0
-351 -144 0
-451 -142 0
-452 -143 0
-453 -144 0
-475 -142 0
-476 -143 0
-477 -144 0
-493 -142 0
-494 -143 0
-495 -144 0
-568 -142 0
-569 -143 0
-570 -144 0
-241 -145 0
-242 -146 0
-243 -147 0
-499 -145 0
-500 -146 0
-501 -147 0
-157 -148 0
-158 -149 0
-159 -150 0
-184 -148 0
-185 -149 0
-186 -150 0
-295 -148 0
-296 -149 0
-297 -150 0
-544 -148 0
-545 -149 0
-546 -150 0
-247 -151 0
-248 -152 0
-249 -153 0
-334 -151 0
-335 -152 0
-336 -153 0
-394 -151 0
-395 -152 0
-396 -153 0
-511 -151 0
-512 -152 0
-513 -153 0
-535 -151 0
-536 -152 0
-537 -153 0
-586 -154 0
-587 -155 0
-588 -156 0
-592 -154 0
-593 -155 0
-594 -156 0
-598 -154 0
-599 -155 0
-600 -156 0
-190 -157 0
-191 -158 0
-192 -159 0
-199 -157 0
-200 -158 0
-201 -159 0
-340 -157 0
-341 -158 0
-342 -159 0
-238 -160 0
-239 -161 0
-240 -162 0
-433 -160 0
-434 -161 0
-435 -162 0
-463 -160 0
-464 -161 0
-465 -162 0
-346 -163 0
-347 -164 0
-348 -165 0
-511 -163 0
-512 -164 0
-513 -165 0
-523 -163 0
-524 -164 0
-525 -165 0
-181 -166 0
-182 -167 0
-183 -168 0
-259 -166 0
-260 -167 0
-261 -168 0
-397 -166 0
-398 -167 0
-399 -168 0
-541 -166 0
-542 -167 0
-543 -168 0
-202 -169 0
-203 -170 0
-204 -171 0
-493 -169 0
-494 -170 0
-495 -171 0
-211 -172 0
-212 -173 0
-213 -174 0
-406 -172 0
-407 -173 0
-408 -174 0
-343 -175 0
-344 -176 0
-345 -177 0
-370 -175 0
-371 -176 0
-372 -177 0
-376 -175 0
-377 -176 0
-378 -177 0
-286 -178 0
-287 -179 0
-288 -180 0
-310 -181 0
-311 -182 0
-312 -183 0
-433 -181 0
-434 -182 0
-435 -183 0
-391 -184 0
-392 -185 0
-393 -186 0
-538 -184 0
-539 -185 0
-540 -186 0
-295 -187 0
-296 -188 0
-297 -189 0
-379 -187 0
-380 -188 0
-381 -189 0
-406 -187 0
-407 -188 0
-408 -189 0
-454 -187 0
-455 -188 0
-456 -189 0
-553 -187 0
-554 -188 0
-555 -189 0
-226 -190 0
-227 -191 0
-228 -192 0
-268 -190 0
-269 -191 0
-270 -192 0
-469 -190 0
-470 -191 0
-471 -192 0
-583 -190 0
-584 -191 0
-585 -192 0
-337 -193 0
-338 -194 0
-339 -195 0
-553 -193 0
-554 -194 0
-555 -195 0
-232 -196 0
-233 -197 0
-234 -198 0
-262 -196 0
-263 -197 0
-264 -198 0
-331 -196 0
-332 -197 0
-333 -198 0
-364 -196 0
-365 -197 0
-366 -198 0
-394 -196 0
-395 -197 0
-396 -198 0
-580 -196 0
-581 -197 0
-582 -198 0
-217 -199 0
-218 -200 0
-219 -201 0
-568 -199 0
-569 -200 0
-570 -201 0
-397 -202 0
-398 -203 0
-399 -204 0
-571 -202 0
-572 -203 0
-573 -204 0
-331 -205 0
-332 -206 0
-333 -207 0
-355 -205 0
-356 -206 0
-357 -207 0
-427 -205 0
-428 -206 0
-429 -207 0
-241 -208 0
-242 -209 0
-243 -210 0
-454 -208 0
-455 -209 0
-456 -210 0
-244 -211 0
-245 -212 0
-246 -213 0
-385 -211 0
-386 -212 0
-387 -213 0
-397 -211 0
-398 -212 0
-399 -213 0
-424 -211 0
-425 -212 0
-426 -213 0
-331 -214 0
-332 -215 0
-333 -216 0
-355 -214 0
-356 -215 0
-357 -216 0
-466 -214 0
-467 -215 0
-468 -216 0
-541 -214 0
-542 -215 0
-543 -216 0
-589 -214 0
-590 -215 0
-591 -216 0
-397 -217 0
-398 -218 0
-399 -219 0
-526 -217 0
-527 -218 0
-528 -219 0
-592 -217 0
-593 -218 0
-594 -219 0
-394 -220 0
-395 -221 0
-396 -222 0
-589 -220 0
-590 -221 0
-591 -222 0
-229 -223 0
-230 -224 0
-231 -225 0
-274 -223 0
-275 -224 0
-276 -225 0
-334 -223 0
-335 -224 0
-336 -225 0
-475 -223 0
-476 -224 0
-477 -225 0
-250 -226 0
-251 -227 0
-252 -228 0
-358 -226 0
-359 -227 0
-360 -228 0
-403 -226 0
-404 -227 0
-405 -228 0
-430 -226 0
-431 -227 0
-432 -228 0
-592 -226 0
-593 -227 0
-594 -228 0
-433 -229 0
-434 -230 0
-435 -231 0
-541 -229 0
-542 -230 0
-543 -231 0
-268 -232 0
-269 -233 0
-270 -234 0
-289 -232 0
-290 -233 0
-291 -234 0
-439 -232 0
-440 -233 0
-441 -234 0
-376 -235 0
-377 -236 0
-378 -237 0
-532 -235 0
-533 -236 0
-534 -237 0
-541 -235 0
-542 -236 0
-543 -237 0
-595 -235 0
-596 -236 0
-597 -237 0
-517 -238 0
-518 -239 0
-519 -240 0
-259 -241 0
-260 -242 0
-261 -243 0
-292 -241 0
-293 -242 0
-294 -243 0
-409 -241 0
-410 -242 0
-411 -243 0
-472 -241 0
-473 -242 0
-474 -243 0
-502 -241 0
-503 -242 0
-504 -243 0
-367 -244 0
-368 -245 0
-369 -246 0
-262 -247 0
-263 -248 0
-264 -249 0
-403 -247 0
-404 -248 0
-405 -249 0
-421 -247 0
-422 -248 0
-423 -249 0
-436 -247 0
-437 -248 0
-438 -249 0
-559 -247 0
-560 -248 0
-561 -249 0
-319 -250 0
-320 -251 0
-321 -252 0
-421 -250 0
-422 -251 0
-423 -252 0
-448 -250 0
-449 -251 0
-450 -252 0
-580 -250 0
-581 -251 0
-582 -252 0
-583 -253 0
-584 -254 0
-585 -255 0
-262 -256 0
-263 -257 0
-264 -258 0
-268 -256 0
-269 -257 0
-270 -258 0
-478 -256 0
-479 -257 0
-480 -258 0
-277 -259 0
-278 -260 0
-279 -261 0
-298 -259 0
-299 -260 0
-300 -261 0
-514 -259 0
-515 -260 0
-516 -261 0
-517 -259 0
-518 -260 0
-519 -261 0
-565 -259 0
-566 -260 0
-567 -261 0
-340 -262 0
-341 -263 0
-342 -264 0
-469 -262 0
-470 -263 0
-471 -264 0
-295 -265 0
-296 -266 0
-297 -267 0
-307 -265 0
-308 -266 0
-309 -267 0
-370 -265 0
-371 -266 0
-372 -267 0
-469 -265 0
-470 -266 0
-471 -267 0
-289 -268 0
-290 -269 0
-291 -270 0
-295 -271 0
-296 -272 0
-297 -273 0
-322 -271 0
-323 -272 0
-324 -273 0
-580 -271 0
-581 -272 0
-582 -273 0
-277 -274 0
-278 -275 0
-279 -276 0
-535 -274 0
-536 -275 0
-537 -276 0
-466 -277 0
-467 -278 0
-468 -279 0
-295 -280 0
-296 -281 0
-297 -282 0
-316 -280 0
-317 -281 0
-318 -282 0
-562 -280 0
-563 -281 0
-564 -282 0
-583 -280 0
-584 -281 0
-585 -282 0
-598 -280 0
-599 -281 0
-600 -282 0
-352 -283 0
-353 -284 0
-354 -285 0
-394 -283 0
-395 -284 0
-396 -285 0
-448 -283 0
-449 -284 0
-450 -285 0
-517 -286 0
-518 -287 0
-519 -288 0
-568 -286 0
-569 -287 0
-570 -288 0
-466 -289 0
-467 -290 0
-468 -291 0
-502 -289 0
-503 -290 0
-504 -291 0
-598 -289 0
-599 -290 0
-600 -291 0
-475 -292 0
-476 -293 0
-477 -294 0
-586 -292 0
-587 -293 0
-588 -294 0
-442 -295 0
-443 -296 0
-444 -297 0
-577 -295 0
-578 -296 0
-579 -297 0
-352 -298 0
-353 -299 0
-354 -300 0
-400 -298 0
-401 -299 0
-402 -300 0
-430 -298 0
-431 -299 0
-432 -300 0
-448 -298 0
-449 -299 0
-450 -300 0
-502 -298 0
-503 -299 0
-504 -300 0
-340 -301 0
-341 -302 0
-342 -303 0
-346 -301 0
-347 -302 0
-348 -303 0
-382 -301 0
-383 -302 0
-384 -303 0
-439 -301 0
-440 -302 0
-441 -303 0
-337 -304 0
-338 -305 0
-339 -306 0
-364 -304 0
-365 -305 0
-366 -306 0
-412 -304 0
-413 -305 0
-414 -306 0
-334 -307 0
-335 -308 0
-336 -309 0
-499 -307 0
-500 -308 0
-501 -309 0
-565 -307 0
-566 -308 0
-567 -309 0
-583 -307 0
-584 -308 0
-585 -309 0
-568 -310 0
-569 -311 0
-570 -312 0
-511 -313 0
-512 -314 0
-513 -315 0
-331 -316 0
-332 -317 0
-333 -318 0
-484 -316 0
-485 -317 0
-486 -318 0
-490 -316 0
-491 -317 0
-492 -318 0
-340 -322 0
-341 -323 0
-342 -324 0
-382 -322 0
-383 -323 0
-384 -324 0
-475 -322 0
-476 -323 0
-477 -324 0
-430 -325 0
-431 -326 0
-432 -327 0
-589 -325 0
-590 -326 0
-591 -327 0
-556 -328 0
-557 -329 0
-558 -330 0
-367 -331 0
-368 -332 0
-369 -333 0
-376 -331 0
-377 -332 0
-378 -333 0
-496 -334 0
-497 -335 0
-498 -336 0
-412 -340 0
-413 -341 0
-414 -342 0
-580 -340 0
-581 -341 0
-582 -342 0
-505 -343 0
-506 -344 0
-507 -345 0
-541 -343 0
-542 -344 0
-543 -345 0
-550 -343 0
-551 -344 0
-552 -345 0
-379 -346 0
-380 -347 0
-381 -348 0
-355 -349 0
-356 -350 0
-357 -351 0
-388 -349 0
-389 -350 0
-390 -351 0
-415 -349 0
-416 -350 0
-417 -351 0
-562 -349 0
-563 -350 0
-564 -351 0
-445 -352 0
-446 -353 0
-447 -354 0
-382 -355 0
-383 -356 0
-384 -357 0
-481 -355 0
-482 -356 0
-483 -357 0
-418 -358 0
-419 -359 0
-420 -360 0
-571 -358 0
-572 -359 0
-573 -360 0
-520 -361 0
-521 -362 0
-522 -363 0
-427 -364 0
-428 -365 0
-429 -366 0
-442 -367 0
-443 -368 0
-444 -369 0
-523 -367 0
-524 -368 0
-525 -369 0
-592 -367 0
-593 -368 0
-594 -369 0
-553 -370 0
-554 -371 0
-555 -372 0
-385 -373 0
-386 -374 0
-387 -375 0
-424 -373 0
-425 -374 0
-426 -375 0
-526 -373 0
-527 -374 0
-528 -375 0
-475 -376 0
-476 -377 0
-477 -378 0
-571 -376 0
-572 -377 0
-573 -378 0
-595 -376 0
-596 -377 0
-597 -378 0
-544 -385 0
-545 -386 0
-546 -387 0
-595 -385 0
-596 -386 0
-597 -387 0
-412 -388 0
-413 -389 0
-414 -390 0
-505 -388 0
-506 -389 0
-507 -390 0
-508 -391 0
-509 -392 0
-510 -393 0
-487 -394 0
-488 -395 0
-489 -396 0
-598 -394 0
-599 -395 0
-600 -396 0
-565 -397 0
-566 -398 0
-567 -399 0
-427 -403 0
-428 -404 0
-429 -405 0
-409 -406 0
-410 -407 0
-411 -408 0
-421 -406 0
-422 -407 0
-423 -408 0
-538 -406 0
-539 -407 0
-540 -408 0
-589 -406 0
-590 -407 0
-591 -408 0
-478 -412 0
-479 -413 0
-480 -414 0
-559 -412 0
-560 -413 0
-561 -414 0
-445 -415 0
-446 -416 0
-447 -417 0
-451 -415 0
-452 -416 0
-453 -417 0
-457 -418 0
-458 -419 0
-459 -420 0
-508 -427 0
-509 -428 0
-510 -429 0
-487 -430 0
-488 -431 0
-489 -432 0
-457 -436 0
-458 -437 0
-459 -438 0
-553 -436 0
-554 -437 0
-555 -438 0
-460 -439 0
-461 -440 0
-462 -441 0
-595 -439 0
-596 -440 0
-597 -441 0
-595 -442 0
-596 -443 0
-597 -444 0
-592 -445 0
-593 -446 0
-594 -447 0
-517 -454 0
-518 -455 0
-519 -456 0
-547 -454 0
-548 -455 0
-549 -456 0
-553 -454 0
-554 -455 0
-555 -456 0
-499 -457 0
-500 -458 0
-501 -459 0
-586 -457 0
-587 -458 0
-588 -459 0
-592 -457 0
-593 -458 0
-594 -459 0
-532 -460 0
-533 -461 0
-534 -462 0
-535 -460 0
-536 -461 0
-537 -462 0
-535 -466 0
-536 -467 0
-537 -468 0
-535 -472 0
-536 -473 0
-537 -474 0
-571 -472 0
-572 -473 0
-573 -474 0
-532 -475 0
-533 -476 0
-534 -477 0
-544 -478 0
-545 -479 0
-546 -480 0
-547 -478 0
-548 -479 0
-549 -480 0
-586 -478 0
-587 -479 0
-588 -480 0
-532 -481 0
-533 -482 0
-534 -483 0
-505 -484 0
-506 -485 0
-507 -486 0
-589 -487 0
-590 -488 0
-591 -489 0
-550 -493 0
-551 -494 0
-552 -495 0
-523 -496 0
-524 -497 0
-525 -498 0
-541 -496 0
-542 -497 0
-543 -498 0
-580 -496 0
-581 -497 0
-582 -498 0
-529 -499 0
-530 -500 0
-531 -501 0
-568 -499 0
-569 -500 0
-570 -501 0
-559 -511 0
-560 -512 0
-561 -513 0
-589 -520 0
-590 -521 0
-591 -522 0
-544 -523 0
-545 -524 0
-546 -525 0
-562 -529 0
-563 -530 0
-564 -531 0
-535 -532 0
-536 -533 0
-537 -534 0
-580 -538 0
-581 -539 0
-582 -540 0
-559 -544 0
-560 -545 0
-561 -546 0
-571 -544 0
-572 -545 0
-573 -546 0
-583 -547 0
-584 -548 0
-585 -549 0
-592 -550 0
-593 -551 0
-594 -552 0
-577 -568 0
-578 -569 0
-579 -570 0
-586 -568 0
-587 -569 0
-588 -570 0
-598 -583 0
-599 -584 0
-600 -585 0
